
Log started (V22.2.0.0) Tue Jun  9 08:33:08 2026

New value for time limit in seconds: 120
New value for default parallel thread count: 4
New value for mixed integer optimality gap tolerance: 0.001
New value for level of mixed integer node display: 2

Problem 'results/InstanceA3_bigm_finsteps123.lp' read.
Read time = 0.01 sec. (0.45 ticks)
Version identifier: 22.2.0.0 | 2026-05-04 | 5dff98e58
CPXPARAM_Threads                                 4
CPXPARAM_TimeLimit                               120
CPXPARAM_MIP_Tolerances_MIPGap                   0.001
Tried aggregator 2 times.
MIP Presolve eliminated 24 rows and 24 columns.
MIP Presolve modified 50704 coefficients.
Aggregator did 358 substitutions.
Reduced MIP has 4504 rows, 2459 columns, and 13130 nonzeros.
Reduced MIP has 2101 binaries, 0 generals, 0 SOSs, and 0 indicators.
Presolve time = 0.01 sec. (22.48 ticks)
Found incumbent of value 48.000000 after 0.02 sec. (32.88 ticks)
Probing time = 0.00 sec. (4.17 ticks)
Tried aggregator 1 time.
Detecting symmetries...
MIP Presolve modified 4 coefficients.
Reduced MIP has 4504 rows, 2459 columns, and 13130 nonzeros.
Reduced MIP has 2101 binaries, 0 generals, 0 SOSs, and 0 indicators.
Presolve time = 0.00 sec. (7.19 ticks)
Probing time = 0.00 sec. (3.82 ticks)
Clique table members: 2002.
MIP emphasis: balance optimality and feasibility.
MIP search method: dynamic search.
Parallel mode: deterministic, using up to 4 threads.
Root relaxation solution time = 0.01 sec. (91.40 ticks)

        Nodes                                         Cuts/
   Node  Left     Objective  IInf  Best Integer    Best Bound    ItCnt     Gap

*     0+    0                           48.0000        8.0000            83.33%
*     0+    0                           45.0000        8.0000            82.22%
      0     0        8.0000     6       45.0000        8.0000     1717   82.22%
*     0+    0                           13.0000        8.0000            38.46%
      0     0        8.0014     7       13.0000      Cuts: 25     1804   38.45%
      0     0        8.0022     5       13.0000      Cuts: 14     1812   38.44%
      0     0       10.0000     2       13.0000      Cuts: 36     1822   23.08%
*     0+    0                           12.0000       10.0000            16.67%
*     0+    0                           10.0000       10.0000             0.00%
      0     0        cutoff             10.0000       10.0000     1822    0.00%
Elapsed time = 0.09 sec. (202.77 ticks, tree = 0.01 MB, solutions = 5)

Clique cuts applied:  13
Implied bound cuts applied:  40
Mixed integer rounding cuts applied:  9

Root node processing (before b&c):
  Real time             =    0.09 sec. (202.98 ticks)
Parallel b&c, 4 threads:
  Real time             =    0.00 sec. (0.00 ticks)
  Sync time (average)   =    0.00 sec.
  Wait time (average)   =    0.00 sec.
                          ------------
Total (root+branch&cut) =    0.09 sec. (202.98 ticks)

Solution pool: 5 solutions saved.

MIP - Integer optimal solution:  Objective =  1.0000000000e+01
Solution time =    0.10 sec.  Iterations = 1822  Nodes = 0
Deterministic time = 202.99 ticks  (2117.39 ticks/sec)


Incumbent solution written to file 'results/InstanceA3_bigm_finsteps123.sol'.
